c generated by sgen
p cnf 129 268
-2 -3 -4 0
-1 -3 -4 0
-1 -2 -4 0
-1 -2 -3 0
-6 -7 -8 0
-5 -7 -8 0
-5 -6 -8 0
-5 -6 -7 0
-10 -11 -12 0
-9 -11 -12 0
-9 -10 -12 0
-9 -10 -11 0
-14 -15 -16 0
-13 -15 -16 0
-13 -14 -16 0
-13 -14 -15 0
-18 -19 -20 0
-17 -19 -20 0
-17 -18 -20 0
-17 -18 -19 0
-22 -23 -24 0
-21 -23 -24 0
-21 -22 -24 0
-21 -22 -23 0
-26 -27 -28 0
-25 -27 -28 0
-25 -26 -28 0
-25 -26 -27 0
-30 -31 -32 0
-29 -31 -32 0
-29 -30 -32 0
-29 -30 -31 0
-34 -35 -36 0
-33 -35 -36 0
-33 -34 -36 0
-33 -34 -35 0
-38 -39 -40 0
-37 -39 -40 0
-37 -38 -40 0
-37 -38 -39 0
-42 -43 -44 0
-41 -43 -44 0
-41 -42 -44 0
-41 -42 -43 0
-46 -47 -48 0
-45 -47 -48 0
-45 -46 -48 0
-45 -46 -47 0
-50 -51 -52 0
-49 -51 -52 0
-49 -50 -52 0
-49 -50 -51 0
-54 -55 -56 0
-53 -55 -56 0
-53 -54 -56 0
-53 -54 -55 0
-58 -59 -60 0
-57 -59 -60 0
-57 -58 -60 0
-57 -58 -59 0
-62 -63 -64 0
-61 -63 -64 0
-61 -62 -64 0
-61 -62 -63 0
-66 -67 -68 0
-65 -67 -68 0
-65 -66 -68 0
-65 -66 -67 0
-70 -71 -72 0
-69 -71 -72 0
-69 -70 -72 0
-69 -70 -71 0
-74 -75 -76 0
-73 -75 -76 0
-73 -74 -76 0
-73 -74 -75 0
-78 -79 -80 0
-77 -79 -80 0
-77 -78 -80 0
-77 -78 -79 0
-82 -83 -84 0
-81 -83 -84 0
-81 -82 -84 0
-81 -82 -83 0
-86 -87 -88 0
-85 -87 -88 0
-85 -86 -88 0
-85 -86 -87 0
-90 -91 -92 0
-89 -91 -92 0
-89 -90 -92 0
-89 -90 -91 0
-94 -95 -96 0
-93 -95 -96 0
-93 -94 -96 0
-93 -94 -95 0
-98 -99 -100 0
-97 -99 -100 0
-97 -98 -100 0
-97 -98 -99 0
-102 -103 -104 0
-101 -103 -104 0
-101 -102 -104 0
-101 -102 -103 0
-106 -107 -108 0
-105 -107 -108 0
-105 -106 -108 0
-105 -106 -107 0
-110 -111 -112 0
-109 -111 -112 0
-109 -110 -112 0
-109 -110 -111 0
-114 -115 -116 0
-113 -115 -116 0
-113 -114 -116 0
-113 -114 -115 0
-118 -119 -120 0
-117 -119 -120 0
-117 -118 -120 0
-117 -118 -119 0
-122 -123 -124 0
-121 -123 -124 0
-121 -122 -124 0
-121 -122 -123 0
-125 -126 -127 0
-125 -126 -128 0
-125 -126 -129 0
-125 -127 -128 0
-125 -127 -129 0
-125 -128 -129 0
-126 -127 -128 0
-126 -127 -129 0
-126 -128 -129 0
-127 -128 -129 0
60 35 28 0
61 35 28 0
61 60 28 0
61 60 35 0
127 106 30 0
40 106 30 0
40 127 30 0
40 127 106 0
129 48 76 0
23 48 76 0
23 129 76 0
23 129 48 0
25 119 92 0
86 119 92 0
86 25 92 0
86 25 119 0
26 69 75 0
18 69 75 0
18 26 75 0
18 26 69 0
98 77 32 0
123 77 32 0
123 98 32 0
123 98 77 0
8 79 64 0
39 79 64 0
39 8 64 0
39 8 79 0
56 4 73 0
38 4 73 0
38 56 73 0
38 56 4 0
113 3 20 0
29 3 20 0
29 113 20 0
29 113 3 0
100 105 57 0
103 105 57 0
103 100 57 0
103 100 105 0
111 37 59 0
87 37 59 0
87 111 59 0
87 111 37 0
74 83 13 0
108 83 13 0
108 74 13 0
108 74 83 0
14 99 34 0
85 99 34 0
85 14 34 0
85 14 99 0
21 51 115 0
58 51 115 0
58 21 115 0
58 21 51 0
88 63 126 0
121 63 126 0
121 88 126 0
121 88 63 0
82 27 128 0
44 27 128 0
44 82 128 0
44 82 27 0
102 53 7 0
17 53 7 0
17 102 7 0
17 102 53 0
104 45 52 0
1 45 52 0
1 104 52 0
1 104 45 0
22 95 2 0
5 95 2 0
5 22 2 0
5 22 95 0
97 9 54 0
89 9 54 0
89 97 54 0
89 97 9 0
124 10 78 0
68 10 78 0
68 124 78 0
68 124 10 0
24 118 16 0
66 118 16 0
66 24 16 0
66 24 118 0
19 67 107 0
42 67 107 0
42 19 107 0
42 19 67 0
41 11 70 0
109 11 70 0
109 41 70 0
109 41 11 0
116 36 91 0
47 36 91 0
47 116 91 0
47 116 36 0
125 71 65 0
33 71 65 0
33 125 65 0
33 125 71 0
110 84 80 0
50 84 80 0
50 110 80 0
50 110 84 0
112 31 117 0
46 31 117 0
46 112 117 0
46 112 31 0
90 122 101 0
96 122 101 0
96 90 101 0
96 90 122 0
55 114 93 0
72 114 93 0
72 55 93 0
72 55 114 0
94 12 120 0
81 12 120 0
81 94 120 0
81 94 12 0
15 6 43 0
15 6 49 0
15 6 62 0
15 43 49 0
15 43 62 0
15 49 62 0
6 43 49 0
6 43 62 0
6 49 62 0
43 49 62 0
